/*********************************************
 * OPL 12.6.0.0 Data
 * Author: Adrian Rodriguez Bazaga, Pau Rodriguez Esmerats
 * Creation Date: 06/12/2017 at 23:02:55
 *********************************************/

nNurses=112;
maxConsec=2;
maxPresence=7;
maxHours=5;
minHours=1;
hours=24;
demand= [20 18 36 34 18 36 34 19 24 17 2 6 3 7 3 6 3 4 1 1 11 24 13 23  ];
